Medium-instances_NetworkFacilityLocation/2023-03-27_20hr-25min-09sec/Nodes40_Arcs55_LocNodes30/Formulation-2Instance-1.lp
\ Model LocPrice
\ LP format - for model browsing. Use MPS format to capture full model detail.
Maximize
  - 190 x[1] - 156 x[2] - 196 x[6] - 198 x[10] - 163 x[12] - 171 x[13]
   - 176 x[14] - 182 x[15] - 172 x[17] - 157 x[18] - 196 x[20] - 184 x[21]
   - 152 x[22] - 190 x[23] - 186 x[24] - 159 x[25] - 180 x[26] - 175 x[28]
   - 151 x[29] - 196 x[30] - 185 x[31] - 165 x[32] - 150 x[33] - 154 x[34]
   - 187 x[35] - 157 x[36] - 175 x[37] - 194 x[38] - 196 x[39] - 163 x[40]
   - 4.682634559224766 Q[1] - 3.133380017534203 Q[2]
   - 3.688619957608251 Q[6] - 3.860597463895667 Q[10]
   - 4.93212416156814 Q[12] - 4.124463684456914 Q[13]
   - 3.517729186341865 Q[14] - 3.48335142818869 Q[15]
   - 4.776236641318359 Q[17] - 3.451738856834649 Q[18]
   - 3.249109411670567 Q[20] - 3.576661514015155 Q[21]
   - 4.172246129625465 Q[22] - 4.108181004346536 Q[23]
   - 4.619421551825555 Q[24] - 4.120951904012371 Q[25]
   - 3.576842428862421 Q[26] - 3.825792685361785 Q[28]
   - 4.636241941941821 Q[29] - 4.253012924839507 Q[30]
   - 4.918155285394884 Q[31] - 3.738808822183362 Q[32]
   - 4.105223021042574 Q[33] - 4.187848403226337 Q[34]
   - 4.69658241655012 Q[35] - 3.290947076373063 Q[36]
   - 3.813020673496253 Q[37] - 4.819917923324594 Q[38]
   - 3.086133777136408 Q[39] - 4.645412560363004 Q[40]
   - 2.730767298648164 f[2,1] - 1.684202302650669 f[3,2]
   - 1.735007744778818 f[4,2] - 0.5823893186723808 f[5,3]
   - 1.578066745853625 f[6,2] - 1.57030418218476 f[7,2]
   - 0.266806920738816 f[8,1] - 2.945828079380119 f[9,1]
   - 1.714186801367323 f[10,1] - 0.0192266479929305 f[11,2]
   - 2.317947603676166 f[12,9] - 2.934797141520437 f[13,8]
   - 1.769610084962852 f[14,12] - 0.959044908847995 f[15,8]
   - 0.5625231471833547 f[16,10] - 2.017579901750608 f[17,16]
   - 0.5853221953704151 f[18,13] - 1.733063677553578 f[19,12]
   - 1.806717529138877 f[20,11] - 2.887269279373143 f[21,12]
   - 0.2167957965896303 f[22,20] - 1.499918470975856 f[23,7]
   - 2.232292437847945 f[24,19] - 0.5316802214239764 f[25,17]
   - 1.164200195353558 f[26,1] - 0.188686495364914 f[27,11]
   - 2.17764259132733 f[28,24] - 0.2633036602784603 f[29,16]
   - 1.185275125073903 f[30,1] - 2.620567893362197 f[31,23]
   - 1.416901010250034 f[32,23] - 2.737865800922657 f[33,28]
   - 2.297751353216617 f[34,6] - 2.745971880335297 f[35,4]
   - 0.382209027146719 f[36,31] - 0.2206887159918961 f[37,1]
   - 0.2109787607076542 f[38,21] - 2.606562883041958 f[39,4]
   - 1.90220993804233 f[40,12] - 2.991030879217475 f[39,32]
   - 2.259149969597029 f[11,15] - 0.3820754157650131 f[32,7]
   - 2.588849995749584 f[30,13] - 2.696471295745454 f[11,7]
   - 0.5262292499552432 f[4,37] - 0.9896874974818075 f[28,40]
   - 0.0720396020140478 f[38,25] - 2.367742644758029 f[26,8]
   - 0.0364395783408377 f[2,23] - 1.938135070699065 f[9,6]
   - 1.723134144293796 f[25,29] - 2.771236072125544 f[25,3]
   - 0.4096302429026584 f[7,3] - 2.70332428026851 f[7,24]
   - 1.429765265117311 f[10,34] + 1313 D[2] + 1383 D[3] + 1408 D[6]
   + 1415 D[7] + 1322 D[9] + 1484 D[10] + 1381 D[12] + 1335 D[17]
   + 1300 D[20] + 1386 D[22] + 1448 D[23] + 1359 D[25] + 1470 D[26]
   + 1339 D[29] + 1327 D[31] + 1378 D[32] + 1440 D[34] + 1359 D[35]
   + 1464 D[36] + 1304 D[40] - 1.496571693798853 S[2]
   - 1.16354341619648 S[3] - 1.673733437727274 S[7]
   - 1.318017387845798 S[9] - 1.710879863265945 S[12]
   - 1.460355328867325 S[13] - 1.507469860544527 S[14]
   - 1.78966573245987 S[15] - 1.092745475523381 S[16]
   - 1.578758503323503 S[17] - 1.197234947295869 S[21]
   - 1.808136751813568 S[24] - 1.48884603612926 S[26]
   - 1.98869533336782 S[31] - 1.182943324675719 S[32]
   - 1.963019140124267 S[34] - 1.800917036608609 S[35]
   - 1.481260496575269 S[37] - 1.813534064179636 S[39]
   - 1.602848905241116 S[40] + [ - 1.661536149484899 f[2,1] ^2
   - 3.319215941112411 f[3,2] ^2 - 0.0398182432291678 f[4,2] ^2
   - 1.460184631033083 f[5,3] ^2 - 0.3145201486625595 f[6,2] ^2
   - 2.610458305346554 f[7,2] ^2 - 1.095396394398229 f[8,1] ^2
   - 2.810608282639145 f[9,1] ^2 - 3.775205707768363 f[10,1] ^2
   - 0.507268409044991 f[11,2] ^2 - 3.459113181603096 f[12,9] ^2
   - 0.2378566064013539 f[13,8] ^2 - 1.523082033243558 f[14,12] ^2
   - 1.719096244714307 f[15,8] ^2 - 1.955398187333857 f[16,10] ^2
   - 3.905849287744178 f[17,16] ^2 - 3.102764752407313 f[18,13] ^2
   - 1.235429450877044 f[19,12] ^2 - 1.079347142003201 f[20,11] ^2
   - 3.452480816757271 f[21,12] ^2 - 3.52522869095076 f[22,20] ^2
   - 2.042826022174581 f[23,7] ^2 - 1.377182923849301 f[24,19] ^2
   - 3.979669392643671 f[25,17] ^2 - 1.263774181470801 f[26,1] ^2
   - 0.7308495157062498 f[27,11] ^2 - 3.520392485216279 f[28,24] ^2
   - 3.249341592445016 f[29,16] ^2 - 2.671557622285405 f[30,1] ^2
   - 3.833654527111808 f[31,23] ^2 - 3.702858308857675 f[32,23] ^2
   - 2.992994013207016 f[33,28] ^2 - 3.442805638190711 f[34,6] ^2
   - 0.9885869612884299 f[35,4] ^2 - 0.5649862276041264 f[36,31] ^2
   - 2.680247397259744 f[37,1] ^2 - 2.858474146619011 f[38,21] ^2
   - 0.6682117151290887 f[39,4] ^2 - 1.582229092419504 f[40,12] ^2
   - 3.25297638145677 f[39,32] ^2 - 1.566699197815611 f[11,15] ^2
   - 2.353520437716859 f[32,7] ^2 - 0.7624702416160729 f[30,13] ^2
   - 1.937995769385001 f[11,7] ^2 - 1.31192915905841 f[4,37] ^2
   - 1.451287803451744 f[28,40] ^2 - 2.04869463135094 f[38,25] ^2
   - 3.533674934534248 f[26,8] ^2 - 2.230990330485226 f[2,23] ^2
   - 2.867002722254913 f[9,6] ^2 - 0.9856238762039022 f[25,29] ^2
   - 3.96809291432578 f[25,3] ^2 - 2.784860424413826 f[7,3] ^2
   - 2.863671387701977 f[7,24] ^2 - 2.339930720902713 f[10,34] ^2
   - 7.687581124737454 D[2] ^2 - 6.848212970888026 D[3] ^2
   - 7.959377417019313 D[6] ^2 - 7.94796880970471 D[7] ^2
   - 7.007353958401158 D[9] ^2 - 7.506893077167811 D[10] ^2
   - 7.827675335346326 D[12] ^2 - 6.952294143937506 D[17] ^2
   - 7.727572482194169 D[20] ^2 - 7.403137132123746 D[22] ^2
   - 6.587848511949115 D[23] ^2 - 7.535304539966948 D[25] ^2
   - 7.141369571718998 D[26] ^2 - 6.187690306866612 D[29] ^2
   - 6.782760852609329 D[31] ^2 - 6.147482026795612 D[32] ^2
   - 6.952333926433991 D[34] ^2 - 6.857079216285848 D[35] ^2
   - 6.847474885940895 D[36] ^2 - 7.172600707181569 D[40] ^2
   - 1.310242127982761 S[2] ^2 - 1.827381525414778 S[3] ^2
   - 0.1305408328225828 S[7] ^2 - 1.669976407916801 S[9] ^2
   - 0.7636295599324776 S[12] ^2 - 0.6510912322014089 S[13] ^2
   - 1.988053542419969 S[14] ^2 - 1.562381004152756 S[15] ^2
   - 0.9710702775591755 S[16] ^2 - 0.8452567928495625 S[17] ^2
   - 1.755057811743592 S[21] ^2 - 0.1736297444297883 S[24] ^2
   - 1.416837513827732 S[26] ^2 - 1.578309247410292 S[31] ^2
   - 1.59839275943223 S[32] ^2 - 0.6445734494796636 S[34] ^2
   - 1.593278365492109 S[35] ^2 - 0.4506568837513303 S[37] ^2
   - 0.7246159009691382 S[39] ^2 - 0.8348962244087597 S[40] ^2 ] / 2 
Subject To
 R0: Q[1] + Q[2] + Q[6] + Q[10] + Q[12] + Q[13] + Q[14] + Q[15] + Q[17]
   + Q[18] + Q[20] + Q[21] + Q[22] + Q[23] + Q[24] + Q[25] + Q[26] + Q[28]
   + Q[29] + Q[30] + Q[31] + Q[32] + Q[33] + Q[34] + Q[35] + Q[36] + Q[37]
   + Q[38] + Q[39] + Q[40] <= 2625
 R1: - 193 x[1] + Q[1] <= 0
 R2: - 118 x[2] + Q[2] <= 0
 R3: - 111 x[6] + Q[6] <= 0
 R4: - 113 x[10] + Q[10] <= 0
 R5: - 172 x[12] + Q[12] <= 0
 R6: - 197 x[13] + Q[13] <= 0
 R7: - 192 x[14] + Q[14] <= 0
 R8: - 166 x[15] + Q[15] <= 0
 R9: - 196 x[17] + Q[17] <= 0
 R10: - 187 x[18] + Q[18] <= 0
 R11: - 101 x[20] + Q[20] <= 0
 R12: - 111 x[21] + Q[21] <= 0
 R13: - 186 x[22] + Q[22] <= 0
 R14: - 108 x[23] + Q[23] <= 0
 R15: - 198 x[24] + Q[24] <= 0
 R16: - 182 x[25] + Q[25] <= 0
 R17: - 195 x[26] + Q[26] <= 0
 R18: - 136 x[28] + Q[28] <= 0
 R19: - 114 x[29] + Q[29] <= 0
 R20: - 151 x[30] + Q[30] <= 0
 R21: - 197 x[31] + Q[31] <= 0
 R22: - 136 x[32] + Q[32] <= 0
 R23: - 188 x[33] + Q[33] <= 0
 R24: - 138 x[34] + Q[34] <= 0
 R25: - 182 x[35] + Q[35] <= 0
 R26: - 122 x[36] + Q[36] <= 0
 R27: - 147 x[37] + Q[37] <= 0
 R28: - 132 x[38] + Q[38] <= 0
 R29: - 123 x[39] + Q[39] <= 0
 R30: - 189 x[40] + Q[40] <= 0
 node[1]: - Q[1] - f[2,1] - f[8,1] - f[9,1] - f[10,1] - f[26,1] - f[30,1]
   - f[37,1] = 0
 node[33]: - Q[33] + f[33,28] = 0
 node[38]: - Q[38] + f[38,21] + f[38,25] = 0
 node[18]: - Q[18] + f[18,13] = 0
 node[28]: - Q[28] + f[28,24] - f[33,28] + f[28,40] = 0
 node[30]: - Q[30] + f[30,1] + f[30,13] = 0
 node[37]: - Q[37] + f[37,1] - f[4,37] - S[37] = 0
 node[39]: - Q[39] + f[39,4] + f[39,32] - S[39] = 0
 node[13]: - Q[13] + f[13,8] - f[18,13] - f[30,13] - S[13] = 0
 node[14]: - Q[14] + f[14,12] - S[14] = 0
 node[15]: - Q[15] + f[15,8] - f[11,15] - S[15] = 0
 node[21]: - Q[21] + f[21,12] - f[38,21] - S[21] = 0
 node[24]: - Q[24] + f[24,19] - f[28,24] - f[7,24] - S[24] = 0
 node[36]: - Q[36] + f[36,31] + D[36] = 0
 node[6]: - Q[6] + f[6,2] - f[34,6] - f[9,6] + D[6] = 0
 node[10]: - Q[10] + f[10,1] - f[16,10] + f[10,34] + D[10] = 0
 node[20]: - Q[20] + f[20,11] - f[22,20] + D[20] = 0
 node[22]: - Q[22] + f[22,20] + D[22] = 0
 node[23]: - Q[23] + f[23,7] - f[31,23] - f[32,23] - f[2,23] + D[23] = 0
 node[25]: - Q[25] + f[25,17] - f[38,25] + f[25,29] + f[25,3] + D[25] = 0
 node[29]: - Q[29] + f[29,16] - f[25,29] + D[29] = 0
 node[32]: - Q[32] + f[32,23] - f[39,32] + f[32,7] + D[32] - S[32] = 0
 node[2]: - Q[2] + f[2,1] - f[3,2] - f[4,2] - f[6,2] - f[7,2] - f[11,2]
   + f[2,23] + D[2] - S[2] = 0
 node[35]: - Q[35] + f[35,4] + D[35] - S[35] = 0
 node[34]: - Q[34] + f[34,6] - f[10,34] + D[34] - S[34] = 0
 node[40]: - Q[40] + f[40,12] - f[28,40] + D[40] - S[40] = 0
 node[12]: - Q[12] + f[12,9] - f[14,12] - f[19,12] - f[21,12] - f[40,12]
   + D[12] - S[12] = 0
 node[17]: - Q[17] + f[17,16] - f[25,17] + D[17] - S[17] = 0
 node[26]: - Q[26] + f[26,1] + f[26,8] + D[26] - S[26] = 0
 node[31]: - Q[31] + f[31,23] - f[36,31] + D[31] - S[31] = 0
 node[4]: f[4,2] - f[35,4] - f[39,4] + f[4,37] = 0
 node[5]: f[5,3] = 0
 node[8]: f[8,1] - f[13,8] - f[15,8] - f[26,8] = 0
 node[11]: f[11,2] - f[20,11] - f[27,11] + f[11,15] + f[11,7] = 0
 node[19]: f[19,12] - f[24,19] = 0
 node[27]: f[27,11] = 0
 node[16]: f[16,10] - f[17,16] - f[29,16] - S[16] = 0
 node[9]: f[9,1] - f[12,9] + f[9,6] + D[9] - S[9] = 0
 node[3]: f[3,2] - f[5,3] - f[25,3] - f[7,3] + D[3] - S[3] = 0
 node[7]: f[7,2] - f[23,7] - f[32,7] - f[11,7] + f[7,3] + f[7,24] + D[7]
   - S[7] = 0
 Cost_Flow[2,1]: - pi[1] + pi[2] + 0.8307680747424493 f[2,1] - mu_f[2,1]
   = -2.730767298648164
 Cost_Flow[3,2]: - pi[2] + pi[3] + 1.659607970556205 f[3,2] - mu_f[3,2]
   = -1.684202302650669
 Cost_Flow[4,2]: - pi[2] + pi[4] + 0.0199091216145839 f[4,2] - mu_f[4,2]
   = -1.735007744778818
 Cost_Flow[5,3]: - pi[3] + pi[5] + 0.7300923155165413 f[5,3] - mu_f[5,3]
   = -0.5823893186723808
 Cost_Flow[6,2]: - pi[2] + pi[6] + 0.1572600743312798 f[6,2] - mu_f[6,2]
   = -1.578066745853625
 Cost_Flow[7,2]: - pi[2] + pi[7] + 1.305229152673277 f[7,2] - mu_f[7,2]
   = -1.57030418218476
 Cost_Flow[8,1]: - pi[1] + pi[8] + 0.5476981971991144 f[8,1] - mu_f[8,1]
   = -0.266806920738816
 Cost_Flow[9,1]: - pi[1] + pi[9] + 1.405304141319573 f[9,1] - mu_f[9,1]
   = -2.945828079380119
 Cost_Flow[10,1]: - pi[1] + pi[10] + 1.887602853884182 f[10,1] - mu_f[10,1]
   = -1.714186801367323
 Cost_Flow[11,2]: - pi[2] + pi[11] + 0.2536342045224955 f[11,2]
   - mu_f[11,2] = -0.0192266479929305
 Cost_Flow[12,9]: - pi[9] + pi[12] + 1.729556590801548 f[12,9] - mu_f[12,9]
   = -2.317947603676166
 Cost_Flow[13,8]: - pi[8] + pi[13] + 0.1189283032006769 f[13,8]
   - mu_f[13,8] = -2.934797141520437
 Cost_Flow[14,12]: - pi[12] + pi[14] + 0.7615410166217789 f[14,12]
   - mu_f[14,12] = -1.769610084962852
 Cost_Flow[15,8]: - pi[8] + pi[15] + 0.8595481223571533 f[15,8]
   - mu_f[15,8] = -0.959044908847995
 Cost_Flow[16,10]: - pi[10] + pi[16] + 0.9776990936669285 f[16,10]
   - mu_f[16,10] = -0.5625231471833547
 Cost_Flow[17,16]: - pi[16] + pi[17] + 1.952924643872089 f[17,16]
   - mu_f[17,16] = -2.017579901750608
 Cost_Flow[18,13]: - pi[13] + pi[18] + 1.551382376203657 f[18,13]
   - mu_f[18,13] = -0.5853221953704151
 Cost_Flow[19,12]: - pi[12] + pi[19] + 0.617714725438522 f[19,12]
   - mu_f[19,12] = -1.733063677553578
 Cost_Flow[20,11]: - pi[11] + pi[20] + 0.5396735710016003 f[20,11]
   - mu_f[20,11] = -1.806717529138877
 Cost_Flow[21,12]: - pi[12] + pi[21] + 1.726240408378636 f[21,12]
   - mu_f[21,12] = -2.887269279373143
 Cost_Flow[22,20]: - pi[20] + pi[22] + 1.76261434547538 f[22,20]
   - mu_f[22,20] = -0.2167957965896303
 Cost_Flow[23,7]: - pi[7] + pi[23] + 1.021413011087291 f[23,7] - mu_f[23,7]
   = -1.499918470975856
 Cost_Flow[24,19]: - pi[19] + pi[24] + 0.6885914619246505 f[24,19]
   - mu_f[24,19] = -2.232292437847945
 Cost_Flow[25,17]: - pi[17] + pi[25] + 1.989834696321836 f[25,17]
   - mu_f[25,17] = -0.5316802214239764
 Cost_Flow[26,1]: - pi[1] + pi[26] + 0.6318870907354004 f[26,1]
   - mu_f[26,1] = -1.164200195353558
 Cost_Flow[27,11]: - pi[11] + pi[27] + 0.3654247578531249 f[27,11]
   - mu_f[27,11] = -0.188686495364914
 Cost_Flow[28,24]: - pi[24] + pi[28] + 1.760196242608139 f[28,24]
   - mu_f[28,24] = -2.17764259132733
 Cost_Flow[29,16]: - pi[16] + pi[29] + 1.624670796222508 f[29,16]
   - mu_f[29,16] = -0.2633036602784603
 Cost_Flow[30,1]: - pi[1] + pi[30] + 1.335778811142702 f[30,1] - mu_f[30,1]
   = -1.185275125073903
 Cost_Flow[31,23]: - pi[23] + pi[31] + 1.916827263555904 f[31,23]
   - mu_f[31,23] = -2.620567893362197
 Cost_Flow[32,23]: - pi[23] + pi[32] + 1.851429154428837 f[32,23]
   - mu_f[32,23] = -1.416901010250034
 Cost_Flow[33,28]: - pi[28] + pi[33] + 1.496497006603508 f[33,28]
   - mu_f[33,28] = -2.737865800922657
 Cost_Flow[34,6]: - pi[6] + pi[34] + 1.721402819095355 f[34,6] - mu_f[34,6]
   = -2.297751353216617
 Cost_Flow[35,4]: - pi[4] + pi[35] + 0.494293480644215 f[35,4] - mu_f[35,4]
   = -2.745971880335297
 Cost_Flow[36,31]: - pi[31] + pi[36] + 0.2824931138020632 f[36,31]
   - mu_f[36,31] = -0.382209027146719
 Cost_Flow[37,1]: - pi[1] + pi[37] + 1.340123698629872 f[37,1] - mu_f[37,1]
   = -0.2206887159918961
 Cost_Flow[38,21]: - pi[21] + pi[38] + 1.429237073309505 f[38,21]
   - mu_f[38,21] = -0.2109787607076542
 Cost_Flow[39,4]: - pi[4] + pi[39] + 0.3341058575645444 f[39,4]
   - mu_f[39,4] = -2.606562883041958
 Cost_Flow[40,12]: - pi[12] + pi[40] + 0.791114546209752 f[40,12]
   - mu_f[40,12] = -1.90220993804233
 Cost_Flow[39,32]: - pi[32] + pi[39] + 1.626488190728385 f[39,32]
   - mu_f[39,32] = -2.991030879217475
 Cost_Flow[11,15]: pi[11] - pi[15] + 0.7833495989078056 f[11,15]
   - mu_f[11,15] = -2.259149969597029
 Cost_Flow[32,7]: - pi[7] + pi[32] + 1.17676021885843 f[32,7] - mu_f[32,7]
   = -0.3820754157650131
 Cost_Flow[30,13]: - pi[13] + pi[30] + 0.3812351208080365 f[30,13]
   - mu_f[30,13] = -2.588849995749584
 Cost_Flow[11,7]: - pi[7] + pi[11] + 0.9689978846925007 f[11,7]
   - mu_f[11,7] = -2.696471295745454
 Cost_Flow[4,37]: pi[4] - pi[37] + 0.6559645795292051 f[4,37] - mu_f[4,37]
   = -0.5262292499552432
 Cost_Flow[28,40]: pi[28] - pi[40] + 0.7256439017258722 f[28,40]
   - mu_f[28,40] = -0.9896874974818075
 Cost_Flow[38,25]: - pi[25] + pi[38] + 1.02434731567547 f[38,25]
   - mu_f[38,25] = -0.0720396020140478
 Cost_Flow[26,8]: - pi[8] + pi[26] + 1.766837467267124 f[26,8] - mu_f[26,8]
   = -2.367742644758029
 Cost_Flow[2,23]: pi[2] - pi[23] + 1.115495165242613 f[2,23] - mu_f[2,23]
   = -0.0364395783408377
 Cost_Flow[9,6]: - pi[6] + pi[9] + 1.433501361127456 f[9,6] - mu_f[9,6]
   = -1.938135070699065
 Cost_Flow[25,29]: pi[25] - pi[29] + 0.4928119381019511 f[25,29]
   - mu_f[25,29] = -1.723134144293796
 Cost_Flow[25,3]: - pi[3] + pi[25] + 1.98404645716289 f[25,3] - mu_f[25,3]
   = -2.771236072125544
 Cost_Flow[7,3]: - pi[3] + pi[7] + 1.392430212206913 f[7,3] - mu_f[7,3]
   = -0.4096302429026584
 Cost_Flow[7,24]: pi[7] - pi[24] + 1.431835693850989 f[7,24] - mu_f[7,24]
   = -2.70332428026851
 Cost_Flow[10,34]: pi[10] - pi[34] + 1.169965360451357 f[10,34]
   - mu_f[10,34] = -1.429765265117311
 Cost_Demand[2]: pi[2] + 3.843790562368727 D[2] - mu_D[2] = 1313
 Cost_Demand[3]: pi[3] + 3.424106485444013 D[3] - mu_D[3] = 1383
 Cost_Demand[6]: pi[6] + 3.979688708509657 D[6] - mu_D[6] = 1408
 Cost_Demand[7]: pi[7] + 3.973984404852355 D[7] - mu_D[7] = 1415
 Cost_Demand[9]: pi[9] + 3.503676979200579 D[9] - mu_D[9] = 1322
 Cost_Demand[10]: pi[10] + 3.753446538583905 D[10] - mu_D[10] = 1484
 Cost_Demand[12]: pi[12] + 3.913837667673163 D[12] - mu_D[12] = 1381
 Cost_Demand[17]: pi[17] + 3.476147071968753 D[17] - mu_D[17] = 1335
 Cost_Demand[20]: pi[20] + 3.863786241097085 D[20] - mu_D[20] = 1300
 Cost_Demand[22]: pi[22] + 3.701568566061873 D[22] - mu_D[22] = 1386
 Cost_Demand[23]: pi[23] + 3.293924255974558 D[23] - mu_D[23] = 1448
 Cost_Demand[25]: pi[25] + 3.767652269983474 D[25] - mu_D[25] = 1359
 Cost_Demand[26]: pi[26] + 3.570684785859499 D[26] - mu_D[26] = 1470
 Cost_Demand[29]: pi[29] + 3.093845153433306 D[29] - mu_D[29] = 1339
 Cost_Demand[31]: pi[31] + 3.391380426304664 D[31] - mu_D[31] = 1327
 Cost_Demand[32]: pi[32] + 3.073741013397806 D[32] - mu_D[32] = 1378
 Cost_Demand[34]: pi[34] + 3.476166963216996 D[34] - mu_D[34] = 1440
 Cost_Demand[35]: pi[35] + 3.428539608142924 D[35] - mu_D[35] = 1359
 Cost_Demand[36]: pi[36] + 3.423737442970447 D[36] - mu_D[36] = 1464
 Cost_Demand[40]: pi[40] + 3.586300353590784 D[40] - mu_D[40] = 1304
 Cost_Supply[2]: - pi[2] + 0.6551210639913803 S[2] - mu_S[2]
   = -1.496571693798853
 Cost_Supply[3]: - pi[3] + 0.9136907627073889 S[3] - mu_S[3]
   = -1.16354341619648
 Cost_Supply[7]: - pi[7] + 0.0652704164112914 S[7] - mu_S[7]
   = -1.673733437727274
 Cost_Supply[9]: - pi[9] + 0.8349882039584006 S[9] - mu_S[9]
   = -1.318017387845798
 Cost_Supply[12]: - pi[12] + 0.3818147799662388 S[12] - mu_S[12]
   = -1.710879863265945
 Cost_Supply[13]: - pi[13] + 0.3255456161007044 S[13] - mu_S[13]
   = -1.460355328867325
 Cost_Supply[14]: - pi[14] + 0.9940267712099843 S[14] - mu_S[14]
   = -1.507469860544527
 Cost_Supply[15]: - pi[15] + 0.7811905020763782 S[15] - mu_S[15]
   = -1.78966573245987
 Cost_Supply[16]: - pi[16] + 0.4855351387795878 S[16] - mu_S[16]
   = -1.092745475523381
 Cost_Supply[17]: - pi[17] + 0.4226283964247812 S[17] - mu_S[17]
   = -1.578758503323503
 Cost_Supply[21]: - pi[21] + 0.8775289058717961 S[21] - mu_S[21]
   = -1.197234947295869
 Cost_Supply[24]: - pi[24] + 0.0868148722148941 S[24] - mu_S[24]
   = -1.808136751813568
 Cost_Supply[26]: - pi[26] + 0.708418756913866 S[26] - mu_S[26]
   = -1.48884603612926
 Cost_Supply[31]: - pi[31] + 0.789154623705146 S[31] - mu_S[31]
   = -1.98869533336782
 Cost_Supply[32]: - pi[32] + 0.7991963797161148 S[32] - mu_S[32]
   = -1.182943324675719
 Cost_Supply[34]: - pi[34] + 0.3222867247398318 S[34] - mu_S[34]
   = -1.963019140124267
 Cost_Supply[35]: - pi[35] + 0.7966391827460546 S[35] - mu_S[35]
   = -1.800917036608609
 Cost_Supply[37]: - pi[37] + 0.2253284418756651 S[37] - mu_S[37]
   = -1.481260496575269
 Cost_Supply[39]: - pi[39] + 0.3623079504845691 S[39] - mu_S[39]
   = -1.813534064179636
 Cost_Supply[40]: - pi[40] + 0.4174481122043798 S[40] - mu_S[40]
   = -1.602848905241116
Bounds
Binaries
 x[1] x[2] x[6] x[10] x[12] x[13] x[14] x[15] x[17] x[18] x[20] x[21] x[22]
 x[23] x[24] x[25] x[26] x[28] x[29] x[30] x[31] x[32] x[33] x[34] x[35]
 x[36] x[37] x[38] x[39] x[40]
SOS
 s0:  S1 :: f[2,1]:1 mu_f[2,1]:2
 s1:  S1 :: f[3,2]:1 mu_f[3,2]:2
 s2:  S1 :: f[4,2]:1 mu_f[4,2]:2
 s3:  S1 :: f[5,3]:1 mu_f[5,3]:2
 s4:  S1 :: f[6,2]:1 mu_f[6,2]:2
 s5:  S1 :: f[7,2]:1 mu_f[7,2]:2
 s6:  S1 :: f[8,1]:1 mu_f[8,1]:2
 s7:  S1 :: f[9,1]:1 mu_f[9,1]:2
 s8:  S1 :: f[10,1]:1 mu_f[10,1]:2
 s9:  S1 :: f[11,2]:1 mu_f[11,2]:2
 s10:  S1 :: f[12,9]:1 mu_f[12,9]:2
 s11:  S1 :: f[13,8]:1 mu_f[13,8]:2
 s12:  S1 :: f[14,12]:1 mu_f[14,12]:2
 s13:  S1 :: f[15,8]:1 mu_f[15,8]:2
 s14:  S1 :: f[16,10]:1 mu_f[16,10]:2
 s15:  S1 :: f[17,16]:1 mu_f[17,16]:2
 s16:  S1 :: f[18,13]:1 mu_f[18,13]:2
 s17:  S1 :: f[19,12]:1 mu_f[19,12]:2
 s18:  S1 :: f[20,11]:1 mu_f[20,11]:2
 s19:  S1 :: f[21,12]:1 mu_f[21,12]:2
 s20:  S1 :: f[22,20]:1 mu_f[22,20]:2
 s21:  S1 :: f[23,7]:1 mu_f[23,7]:2
 s22:  S1 :: f[24,19]:1 mu_f[24,19]:2
 s23:  S1 :: f[25,17]:1 mu_f[25,17]:2
 s24:  S1 :: f[26,1]:1 mu_f[26,1]:2
 s25:  S1 :: f[27,11]:1 mu_f[27,11]:2
 s26:  S1 :: f[28,24]:1 mu_f[28,24]:2
 s27:  S1 :: f[29,16]:1 mu_f[29,16]:2
 s28:  S1 :: f[30,1]:1 mu_f[30,1]:2
 s29:  S1 :: f[31,23]:1 mu_f[31,23]:2
 s30:  S1 :: f[32,23]:1 mu_f[32,23]:2
 s31:  S1 :: f[33,28]:1 mu_f[33,28]:2
 s32:  S1 :: f[34,6]:1 mu_f[34,6]:2
 s33:  S1 :: f[35,4]:1 mu_f[35,4]:2
 s34:  S1 :: f[36,31]:1 mu_f[36,31]:2
 s35:  S1 :: f[37,1]:1 mu_f[37,1]:2
 s36:  S1 :: f[38,21]:1 mu_f[38,21]:2
 s37:  S1 :: f[39,4]:1 mu_f[39,4]:2
 s38:  S1 :: f[40,12]:1 mu_f[40,12]:2
 s39:  S1 :: f[39,32]:1 mu_f[39,32]:2
 s40:  S1 :: f[11,15]:1 mu_f[11,15]:2
 s41:  S1 :: f[32,7]:1 mu_f[32,7]:2
 s42:  S1 :: f[30,13]:1 mu_f[30,13]:2
 s43:  S1 :: f[11,7]:1 mu_f[11,7]:2
 s44:  S1 :: f[4,37]:1 mu_f[4,37]:2
 s45:  S1 :: f[28,40]:1 mu_f[28,40]:2
 s46:  S1 :: f[38,25]:1 mu_f[38,25]:2
 s47:  S1 :: f[26,8]:1 mu_f[26,8]:2
 s48:  S1 :: f[2,23]:1 mu_f[2,23]:2
 s49:  S1 :: f[9,6]:1 mu_f[9,6]:2
 s50:  S1 :: f[25,29]:1 mu_f[25,29]:2
 s51:  S1 :: f[25,3]:1 mu_f[25,3]:2
 s52:  S1 :: f[7,3]:1 mu_f[7,3]:2
 s53:  S1 :: f[7,24]:1 mu_f[7,24]:2
 s54:  S1 :: f[10,34]:1 mu_f[10,34]:2
 s55:  S1 :: D[2]:1 mu_D[2]:2
 s56:  S1 :: D[3]:1 mu_D[3]:2
 s57:  S1 :: D[6]:1 mu_D[6]:2
 s58:  S1 :: D[7]:1 mu_D[7]:2
 s59:  S1 :: D[9]:1 mu_D[9]:2
 s60:  S1 :: D[10]:1 mu_D[10]:2
 s61:  S1 :: D[12]:1 mu_D[12]:2
 s62:  S1 :: D[17]:1 mu_D[17]:2
 s63:  S1 :: D[20]:1 mu_D[20]:2
 s64:  S1 :: D[22]:1 mu_D[22]:2
 s65:  S1 :: D[23]:1 mu_D[23]:2
 s66:  S1 :: D[25]:1 mu_D[25]:2
 s67:  S1 :: D[26]:1 mu_D[26]:2
 s68:  S1 :: D[29]:1 mu_D[29]:2
 s69:  S1 :: D[31]:1 mu_D[31]:2
 s70:  S1 :: D[32]:1 mu_D[32]:2
 s71:  S1 :: D[34]:1 mu_D[34]:2
 s72:  S1 :: D[35]:1 mu_D[35]:2
 s73:  S1 :: D[36]:1 mu_D[36]:2
 s74:  S1 :: D[40]:1 mu_D[40]:2
 s75:  S1 :: S[2]:1 mu_S[2]:2
 s76:  S1 :: S[3]:1 mu_S[3]:2
 s77:  S1 :: S[7]:1 mu_S[7]:2
 s78:  S1 :: S[9]:1 mu_S[9]:2
 s79:  S1 :: S[12]:1 mu_S[12]:2
 s80:  S1 :: S[13]:1 mu_S[13]:2
 s81:  S1 :: S[14]:1 mu_S[14]:2
 s82:  S1 :: S[15]:1 mu_S[15]:2
 s83:  S1 :: S[16]:1 mu_S[16]:2
 s84:  S1 :: S[17]:1 mu_S[17]:2
 s85:  S1 :: S[21]:1 mu_S[21]:2
 s86:  S1 :: S[24]:1 mu_S[24]:2
 s87:  S1 :: S[26]:1 mu_S[26]:2
 s88:  S1 :: S[31]:1 mu_S[31]:2
 s89:  S1 :: S[32]:1 mu_S[32]:2
 s90:  S1 :: S[34]:1 mu_S[34]:2
 s91:  S1 :: S[35]:1 mu_S[35]:2
 s92:  S1 :: S[37]:1 mu_S[37]:2
 s93:  S1 :: S[39]:1 mu_S[39]:2
 s94:  S1 :: S[40]:1 mu_S[40]:2
End
